NAME          
ROWS
 N  OBJ
 L  c1
COLUMNS
    MARKER    'MARKER'                 'INTORG'
    x[1]      c1        36
    x[1]      OBJ       -950
    x[2]      c1        21
    x[2]      OBJ       -130
    x[3]      c1        889
    x[3]      OBJ       -996
    x[4]      c1        396
    x[4]      OBJ       -919
    x[5]      c1        218
    x[5]      OBJ       -520
    x[6]      c1        606
    x[6]      OBJ       -795
    x[7]      c1        710
    x[7]      OBJ       -454
    x[8]      c1        920
    x[8]      OBJ       -174
    x[9]      c1        188
    x[9]      OBJ       -367
    x[10]     c1        43
    x[10]     OBJ       -398
RHS
    rhs       c1        2014
RANGES
BOUNDS
 BV bounds    x[1]
 BV bounds    x[2]
 BV bounds    x[3]
 BV bounds    x[4]
 BV bounds    x[5]
 BV bounds    x[6]
 BV bounds    x[7]
 BV bounds    x[8]
 BV bounds    x[9]
 BV bounds    x[10]
ENDATA
